NAME : sim141.121256.tour
COMMENT : Length = 121256
COMMENT : Found by LKH [Keld Helsgaun] Thu Sep 20 03:51:23 2018
TYPE : TOUR
DIMENSION : 141
TOUR_SECTION
1
6
84
114
113
126
46
108
134
60
50
110
53
32
34
41
47
21
37
36
100
61
71
98
70
23
136
73
102
103
97
78
83
42
3
105
90
91
59
111
14
129
121
109
57
122
22
99
124
118
43
130
123
85
39
35
10
101
135
81
4
13
51
74
33
76
115
15
11
140
5
86
107
12
77
66
7
64
52
139
63
75
55
132
127
25
38
45
27
68
92
88
17
2
96
117
44
95
104
54
18
29
79
116
31
62
16
9
58
119
141
93
120
30
125
112
133
94
67
82
72
106
20
56
65
24
131
49
8
40
28
138
89
137
128
87
69
26
19
48
80
-1
EOF
